20 40 25 35 50 45 55 60 30 70 85 25 65 75 90 15 80 55 35 70 45 60 40 75 50 85 95 20 30 45 40 80 35 70 25 60 45 55 50 75 65 40 35 85 45 30 25 60 90 40
30 50 20 35 60 50 40 65 45 55 75 30 70 80 100 25 85 50 35 75 50 65 55 80 60 95 105 30 40 55 45 85 40 75 35 65 50 60 55 80 70 45 40 90 55 35 30 70 110 50
500 500 500 500 500 500 500 500 500 500